Version identifier: 22.1.0.0 | 2022-03-09 | 1a383f8ce
CPXPARAM_Read_DataCheck                          1
Tried aggregator 2 times.
Aggregator has done 200 substitutions...
MIP Presolve eliminated 654740 rows and 502 columns.
MIP Presolve modified 205892 coefficients.
Aggregator did 200 substitutions.
Reduced MIP has 1176699 rows, 60100 columns, and 7398137 nonzeros.
Reduced MIP has 60100 binaries, 0 generals, 0 SOSs, and 0 indicators.
Presolve time = 147.28 sec. (76179.88 ticks)
Probing fixed 2 vars, tightened 0 bounds.
Probing time = 7.62 sec. (3319.87 ticks)
Tried aggregator 2 times.
Aggregator has done 1 substitutions...
Detecting symmetries...
MIP Presolve eliminated 6 rows and 651 columns.
Aggregator did 1 substitutions.
Reduced MIP has 1176692 rows, 59448 columns, and 7396286 nonzeros.
Reduced MIP has 59448 binaries, 0 generals, 0 SOSs, and 0 indicators.
Presolve time = 33.57 sec. (13741.72 ticks)
Probing time = 0.45 sec. (146.13 ticks)
Clique table members: 453750.
MIP emphasis: balance optimality and feasibility.
MIP search method: dynamic search.
Parallel mode: deterministic, using up to 4 threads.
Root relaxation solution time = 67.45 sec. (26313.82 ticks)

        Nodes                                         Cuts/
   Node  Left     Objective  IInf  Best Integer    Best Bound    ItCnt     Gap

      0     0        1.0833  1473                      1.0833    55341         
      0     0        3.0000   187                  Cuts: 2072    55997         
      0     0        3.0000   250                  Cuts: 1212    56448         
      0     0        3.0000    53                 Cliques: 21    56481         
      0     0        3.0000   180                   Cuts: 164    56735         
Heuristic still looking.
Detecting symmetries...
      0     2        3.0000   116                      3.0000    56735         
Elapsed time = 735.35 sec. (238274.00 ticks, tree = 0.02 MB, solutions = 0)
      1     3        3.0000    81                      3.0000    56762         
      3     2    infeasible                            3.0000    56776         
      4     3        3.0000   100                      3.0000    56745         
      5     3        3.0000    76                      3.0000    56816         
      6     3        3.0000   100                      3.0000    56803         
      7     4        3.0000    75                      3.0000    56818         
      9     6        3.0000    50                      3.0000    57192         
     10     5        3.0000   103                      3.0000    56839         
     11     9        3.0000    94                      3.0000    57283         
     12     7        3.0104  1138                      3.0000    60804         
Elapsed time = 773.74 sec. (246251.62 ticks, tree = 0.17 MB, solutions = 0)
     14     3        3.0104  1133                      3.0000    61386         
     18     8        3.0417  1574                      3.0000    60967         
     21    10        3.0104  1126                      3.0000    61754         
     24    12        3.0000    81                      3.0000    81039         
     27    16        3.0000    79                      3.0000    93896         
     32    15        3.0000    85                      3.0000    90729         
     34    17        3.0000    54                      3.0000   100321         
     37    20        3.0000    54                      3.0000   112593         
     41    16    infeasible                            3.0000   117035         
     43    12    infeasible                            3.0000   126538         
Elapsed time = 823.50 sec. (260057.68 ticks, tree = 0.64 MB, solutions = 0)
     48    17        3.0000    78                      3.0000   126556         
     61    15        3.0000    36                      3.0000   126614         
     69    19    infeasible                            3.0000   127704         
     78    20        5.0000   562                      3.0000   138557         
     87    21        3.0104  1104                      3.0000   129994         
     92    34        5.0000   540                      3.0000   139443         
     97    39        5.0000   566                      3.0000   144635         
    106    46        3.0000    43                      3.0000   141814         
    112    45        5.0000   417                      3.0000   148595         
    114    53        3.0000    43                      3.0000   148512         
Elapsed time = 852.00 sec. (271946.57 ticks, tree = 13.80 MB, solutions = 0)
    121    58        3.0000    43                      3.0000   148604         
    129    62        5.0000   376                      3.0000   148884         
    134    69        3.0000    31                      3.0000   149002         
    145    75        3.0000    31                      3.0000   149023         
    151    84        5.0000   328                      3.0000   149039         
    159    89        5.0000   308                      3.0000   149047         
    169   100        3.0000    31                      3.0000   156977         
    178   103        5.0000   501                      3.0000   157713         
    190   106        3.0000    31                      3.0000   156984         
    203   139        5.0000   466                      3.0000   157814         
Elapsed time = 889.04 sec. (282908.75 ticks, tree = 13.54 MB, solutions = 0)
    216   130        3.0000    31                      3.0000   157409         
    232   127        5.0000   224                      3.0000   157420         
    241   138    infeasible                            3.0000   160897         
    249   143        5.0000   453                      3.0000   160918         
    261   148        5.0000   435                      3.0000   160925         
    272   181        3.0000    31                      3.0000   161000         
    278   171        5.0000   168                      3.0000   160956         
    287   176        5.0000   148                      3.0000   160971         
    293   187        3.0000    31                      3.0000   161023         
    301   226        3.0000    31                      3.0000   161335         
Elapsed time = 917.79 sec. (293455.96 ticks, tree = 34.84 MB, solutions = 0)
    308   228        3.0000    31                      3.0000   161348         
    312   218        5.0000    96                      3.0000   161287         
    317   238        5.0000    76                      3.0000   161371         
    327   244        5.0000   340                      3.0000   161538         
    337   249        5.0000   320                      3.0000   161578         
    343   251        5.0000   551                      3.0000   167401         
    351   253        5.0000   306                      3.0000   161594         
*   355+  245                            5.0000        3.0000            40.00%
    359   258        5.0000   286        5.0000        3.0000   161603   40.00%
    367   271        5.0000   371        5.0000        3.0000   166196   40.00%
    372   128        3.0000    24        5.0000        3.0000   167746   40.00%
Elapsed time = 950.81 sec. (304791.09 ticks, tree = 9.79 MB, solutions = 1)
    376   117    infeasible              5.0000        3.0000   167720   40.00%
    384   279        5.0000   240        5.0000        3.0000   166238   40.00%
    389   126    infeasible              5.0000        3.0000   171058   40.00%
    395   283        5.0000   224        5.0000        3.0000   166242   40.00%
    396   115    infeasible              5.0000        3.0000   173806   40.00%
    404   116        3.0000    24        5.0000        3.0000   172314   40.00%
    408   118        3.0000    24        5.0000        3.0000   172619   40.00%
    411   114        3.0000    24        5.0000        3.0000   175269   40.00%
    418   114    infeasible              5.0000        3.0000   175571   40.00%
    423   112    infeasible              5.0000        3.0000   176423   40.00%
Elapsed time = 984.32 sec. (316461.45 ticks, tree = 9.48 MB, solutions = 1)
    428   104    infeasible              5.0000        3.0000   182780   40.00%
    432   103    infeasible              5.0000        3.0000   182826   40.00%
    436   101    infeasible              5.0000        3.0000   183951   40.00%
    442   102    infeasible              5.0000        3.0000   185710   40.00%
    445   103        3.0000    24        5.0000        3.0000   185763   40.00%
    450   104        3.0000    24        5.0000        3.0000   185853   40.00%
    454   103    infeasible              5.0000        3.0000   186249   40.00%
    458   101    infeasible              5.0000        3.0000   187854   40.00%
    463   107        3.0000    24        5.0000        3.0000   189373   40.00%
    467    97    infeasible              5.0000        3.0000   193443   40.00%
Elapsed time = 1011.05 sec. (328812.13 ticks, tree = 7.15 MB, solutions = 1)
    472    96    infeasible              5.0000        3.0000   194347   40.00%
    474    91    infeasible              5.0000        3.0000   196259   40.00%
    476    92    infeasible              5.0000        3.0000   201371   40.00%
    481    91    infeasible              5.0000        3.0000   196720   40.00%
    485    90    infeasible              5.0000        3.0000   203476   40.00%
    489    82    infeasible              5.0000        3.0000   207116   40.00%
    494    80    infeasible              5.0000        3.0000   208230   40.00%
    499    89    infeasible              5.0000        3.0000   203813   40.00%
    504    77    infeasible              5.0000        3.0000   212230   40.00%
    508    75    infeasible              5.0000        3.0000   213514   40.00%
Elapsed time = 1037.06 sec. (340395.34 ticks, tree = 4.67 MB, solutions = 1)
    511    81    infeasible              5.0000        3.0000   209753   40.00%
    514    75        3.0000    24        5.0000        3.0000   217149   40.00%
    521    74    infeasible              5.0000        3.0000   213577   40.00%
    524    70    infeasible              5.0000        3.0000   219042   40.00%
    527    75        3.0000    32        5.0000        3.0000   213974   40.00%
    532    64    infeasible              5.0000        3.0000   223449   40.00%
    535    65        3.0000    24        5.0000        3.0000   223533   40.00%
    538    68        3.0000    31        5.0000        3.0000   221960   40.00%
    544    71        3.0000    32        5.0000        3.0000   221978   40.00%
    559    68        3.0000    32        5.0000        3.0000   228423   40.00%
Elapsed time = 1074.12 sec. (355875.00 ticks, tree = 4.74 MB, solutions = 1)
    574    77        3.0000    32        5.0000        3.0000   228451   40.00%
    594    73        3.0000    32        5.0000        3.0000   230565   40.00%
    620    82        3.0000    32        5.0000        3.0000   230590   40.00%
*   638    43      integral     0        3.0000        3.0000   234426    0.00%
    641    48    infeasible              3.0000        3.0000   257857    0.00%
    652    34    infeasible              3.0000        3.0000   256979    0.00%

Clique cuts applied:  12
Implied bound cuts applied:  139
Zero-half cuts applied:  5

Root node processing (before b&c):
  Real time             =  730.71 sec. (236222.27 ticks)
Parallel b&c, 4 threads:
  Real time             =  387.56 sec. (140214.31 ticks)
  Sync time (average)   =   99.79 sec.
  Wait time (average)   =    0.00 sec.
                          ------------
Total (root+branch&cut) = 1118.27 sec. (376436.58 ticks)
y[0] = 1.0
y[1] = 1.0
y[2] = 1.0
y[3] = 1.0
